NAME : a280
COMMENT : Algorithm Random(+2opt)
COMMENT : Length 2903 
COMMENT : Elapsed time 0.035177 seconds
TYPE : TOUR
DIMENSION : 280
TOUR_SECTION
227
228
233
234
235
236
237
232
231
238
239
240
241
243
242
2
280
1
5
6
7
8
9
276
277
4
3
279
278
275
274
273
272
271
16
15
10
11
12
13
14
24
23
25
22
26
27
28
29
126
125
124
123
122
121
120
119
157
158
159
160
175
161
174
173
106
107
105
103
102
92
91
90
104
108
110
111
114
113
112
88
83
87
84
85
86
116
115
117
118
61
60
43
42
44
45
46
47
41
40
39
38
35
34
30
31
32
33
36
37
50
51
52
49
48
53
54
55
56
57
58
59
62
63
64
65
66
67
68
69
70
71
72
73
74
75
77
78
76
79
82
109
89
81
80
93
94
95
96
97
98
99
101
100
168
167
169
170
171
172
166
165
164
163
162
184
183
182
181
176
180
179
149
147
146
145
144
143
142
141
148
140
139
138
137
150
178
177
151
152
156
153
155
154
127
128
129
130
131
132
21
20
19
18
17
133
134
270
269
268
135
136
267
266
265
264
263
262
261
260
259
258
257
254
253
208
252
255
256
249
248
244
245
246
247
250
251
230
229
209
210
207
206
205
204
203
200
199
198
197
193
186
185
187
188
189
190
191
192
194
195
196
201
202
216
213
212
211
214
215
218
219
217
220
221
222
223
224
225
226
227
EOF
